183 5
10 10 10 10 10 

0 0 0 0 0 0 1 2 
0 0 0 0 0 0 5 3 5 6 7 12 
4 0 0 1 0 0 1 4 
7 0 0 6 0 0 3 11 10 8 
5 0 0 5 0 0 1 9 
5 0 0 3 0 0 1 9 
5 0 0 5 0 0 1 8 
3 0 0 6 0 0 1 13 
8 0 0 5 0 0 1 13 
10 0 0 5 0 0 1 13 
8 0 0 4 0 0 1 13 
4 0 0 10 0 0 1 13 
0 0 0 0 0 0 4 14 26 38 50 
0 0 0 0 0 0 7 15 19 20 21 23 24 70 
1 0 0 0 1 0 3 18 17 16 
5 0 0 0 4 0 1 22 
6 0 0 0 4 0 1 22 
9 0 0 0 6 0 1 22 
7 0 0 0 10 0 1 22 
3 0 0 0 4 0 1 22 
3 0 0 0 7 0 1 22 
5 0 0 0 4 0 1 25 
10 0 0 0 6 0 1 25 
3 0 0 0 4 0 1 25 
0 0 0 0 0 0 1 62 
0 0 0 0 0 0 3 27 29 30 
3 0 0 0 1 0 3 34 31 28 
9 0 0 0 5 0 5 36 35 33 32 149 
7 0 0 0 5 0 2 34 32 
5 0 0 0 3 0 2 33 32 
1 0 0 0 6 0 1 32 
5 0 0 0 4 0 1 37 
3 0 0 0 7 0 1 37 
10 0 0 0 8 0 1 37 
2 0 0 0 7 0 1 37 
4 0 0 0 4 0 1 37 
0 0 0 0 0 0 1 62 
0 0 0 0 0 0 6 39 40 41 42 44 89 
1 0 0 0 1 0 4 48 47 46 45 
2 0 0 0 6 0 2 48 43 
5 0 0 0 3 0 3 48 47 45 
6 0 0 0 10 0 1 43 
10 0 0 0 6 0 2 46 45 
3 0 0 0 5 0 1 47 
3 0 0 0 6 0 1 49 
2 0 0 0 4 0 1 49 
10 0 0 0 6 0 1 49 
3 0 0 0 3 0 1 49 
0 0 0 0 0 0 1 62 
0 0 0 0 0 0 3 51 52 53 
2 0 0 2 0 0 4 57 56 55 54 
5 0 0 4 0 0 4 57 56 55 54 
4 0 0 2 0 0 3 58 56 54 
9 0 0 5 0 0 2 60 59 
2 0 0 3 0 0 2 60 59 
2 0 0 8 0 0 2 59 66 
4 0 0 6 0 0 1 60 
8 0 0 8 0 0 1 59 
6 0 0 2 0 0 1 61 
1 0 0 10 0 0 1 61 
0 0 0 0 0 0 1 62 
0 0 0 0 0 0 5 63 75 87 99 111 
0 0 0 0 0 0 4 64 65 72 73 
5 0 0 0 0 1 4 71 70 69 66 
2 0 0 0 0 9 2 68 66 
7 0 0 0 0 4 1 67 
5 0 0 0 0 5 1 74 
5 0 0 0 0 5 1 74 
1 0 0 0 0 4 2 74 84 
2 0 0 0 0 4 1 74 
1 0 0 0 0 6 1 74 
7 0 0 0 0 6 1 74 
1 0 0 0 0 6 1 74 
0 0 0 0 0 0 1 123 
0 0 0 0 0 0 5 76 78 83 84 85 
7 0 0 0 0 1 1 77 
8 0 0 0 0 4 4 82 81 80 79 
3 0 0 0 0 5 4 81 80 79 139 
1 0 0 0 0 9 1 86 
2 0 0 0 0 3 1 86 
10 0 0 0 0 8 1 86 
3 0 0 0 0 6 1 86 
10 0 0 0 0 3 1 86 
5 0 0 0 0 6 1 86 
5 0 0 0 0 5 1 86 
0 0 0 0 0 0 1 123 
0 0 0 0 0 0 5 88 89 90 92 93 
3 0 0 0 1 0 2 97 91 
3 0 0 0 3 0 2 96 94 
3 0 0 0 5 0 1 91 
4 0 0 0 8 0 1 94 
6 0 0 0 3 0 1 95 
2 0 0 0 7 0 1 94 
9 0 0 0 3 0 2 98 139 
1 0 0 0 7 0 1 98 
10 0 0 0 8 0 1 98 
1 0 0 0 5 0 1 98 
0 0 0 0 0 0 1 123 
0 0 0 0 0 0 4 100 107 108 109 
6 0 0 0 1 0 2 106 101 
8 0 0 0 6 0 4 105 104 103 102 
8 0 0 0 5 0 1 110 
1 0 0 0 4 0 2 110 166 
9 0 0 0 5 0 1 110 
9 0 0 0 9 0 1 110 
10 0 0 0 3 0 1 110 
4 0 0 0 7 0 1 110 
8 0 0 0 7 0 1 110 
8 0 0 0 3 0 1 110 
0 0 0 0 0 0 1 123 
0 0 0 0 0 0 4 112 113 115 116 
7 0 0 0 1 0 2 117 114 
7 0 0 0 8 0 3 121 120 118 
8 0 0 0 10 0 3 121 120 119 
8 0 0 0 4 0 2 121 117 
4 0 0 0 5 0 3 120 117 166 
6 0 0 0 5 0 1 119 
1 0 0 0 3 0 1 119 
10 0 0 0 8 0 1 122 
10 0 0 0 2 0 1 122 
8 0 0 0 4 0 1 122 
0 0 0 0 0 0 1 123 
0 0 0 0 0 0 4 124 136 148 160 
0 0 0 0 0 0 5 125 126 127 128 131 
1 0 1 0 0 0 3 134 130 129 
10 0 6 0 0 0 2 130 129 
2 0 3 0 0 0 2 134 132 
9 0 6 0 0 0 2 133 132 
5 0 3 0 0 0 1 133 
2 0 5 0 0 0 1 132 
3 0 8 0 0 0 1 132 
3 0 7 0 0 0 1 135 
2 0 5 0 0 0 1 135 
4 0 6 0 0 0 1 135 
0 0 0 0 0 0 1 172 
0 0 0 0 0 0 4 137 138 140 142 
4 0 0 0 0 1 3 144 141 139 
5 0 0 0 0 4 3 146 145 141 
7 0 0 0 0 5 2 146 145 
2 0 0 0 0 3 2 144 143 
1 0 0 0 0 7 1 143 
9 0 0 0 0 6 1 144 
5 0 0 0 0 6 1 147 
1 0 0 0 0 7 1 147 
4 0 0 0 0 6 1 147 
4 0 0 0 0 5 1 147 
0 0 0 0 0 0 1 172 
0 0 0 0 0 0 4 149 150 151 153 
4 0 0 1 0 0 5 158 157 156 154 152 
9 0 0 2 0 0 2 154 152 
8 0 0 7 0 0 2 157 154 
8 0 0 6 0 0 1 155 
10 0 0 5 0 0 1 156 
5 0 0 5 0 0 1 159 
8 0 0 5 0 0 1 159 
2 0 0 5 0 0 1 159 
8 0 0 4 0 0 1 159 
1 0 0 10 0 0 1 159 
0 0 0 0 0 0 1 172 
0 0 0 0 0 0 5 161 162 164 169 170 
3 0 1 0 0 0 3 168 167 166 
8 0 5 0 0 0 2 166 163 
2 0 9 0 0 0 1 165 
2 0 4 0 0 0 1 165 
9 0 5 0 0 0 1 171 
1 0 3 0 0 0 1 171 
10 0 5 0 0 0 1 171 
7 0 6 0 0 0 1 171 
5 0 7 0 0 0 1 171 
7 0 5 0 0 0 1 171 
0 0 0 0 0 0 1 172 
0 0 0 0 0 0 5 173 174 177 178 182 
1 0 0 0 0 1 2 181 175 
9 0 0 0 0 6 2 176 175 
8 0 0 0 0 8 2 180 179 
9 0 0 0 0 6 1 179 
7 0 0 0 0 5 1 180 
10 0 0 0 0 5 1 179 
6 0 0 0 0 6 1 183 
6 0 0 0 0 4 1 183 
9 0 0 0 0 2 1 183 
7 0 0 0 0 7 1 183 
0 0 0 0 0 0 0 
